750
150 150
1 120 321
2 120 495
3 120 933
4 120 91
5 120 726
6 120 151
7 120 732
8 120 80
9 120 868
10 119 775
11 119 683
12 119 998
13 119 422
14 119 652
15 119 58
16 119 28
17 118 680
18 118 185
19 118 172
20 118 38
21 118 78
22 118 490
23 117 525
24 117 115
25 117 713
26 117 699
27 117 961
28 117 461
29 117 375
30 117 937
31 116 135
32 116 855
33 116 649
34 116 326
35 116 744
36 116 789
37 116 526
38 116 119
39 116 661
40 116 746
41 115 862
42 115 844
43 115 938
44 115 620
45 115 796
46 115 243
47 115 237
48 115 741
49 115 50
50 115 81
51 115 390
52 114 742
53 114 301
54 114 916
55 114 322
56 114 700
57 114 790
58 114 824
59 114 173
60 114 675
61 114 3
62 113 321
63 113 829
64 113 796
65 113 431
66 113 217
67 113 342
68 113 108
69 113 795
70 113 574
71 112 754
72 112 850
73 112 758
74 112 481
75 112 311
76 112 209
77 112 770
78 111 809
79 111 90
80 111 907
81 111 135
82 111 267
83 111 404
84 111 839
85 111 314
86 111 561
87 111 955
88 110 572
89 110 193
90 110 289
91 110 752
92 110 592
93 110 557
94 110 799
95 110 254
96 110 902
97 109 188
98 109 926
99 109 557
100 109 207
101 109 611
102 109 565
103 109 671
104 108 452
105 108 33
106 108 119
107 108 676
108 108 943
109 108 968
110 107 511
111 107 301
112 107 940
113 107 935
114 107 555
115 107 114
116 107 487
117 107 221
118 107 390
119 106 863
120 106 316
121 106 867
122 106 600
123 106 245
124 106 730
125 106 192
126 105 8
127 105 885
128 105 457
129 105 504
130 105 106
131 105 535
132 105 694
133 105 580
134 105 405
135 105 332
136 104 886
137 104 971
138 104 389
139 104 113
140 104 194
141 104 186
142 104 215
143 104 51
144 103 641
145 103 154
146 103 948
147 103 580
148 102 332
149 102 454
150 102 642
151 102 120
152 102 354
153 102 189
154 102 747
155 102 465
156 101 152
157 101 625
158 101 756
159 101 874
160 101 468
161 101 277
162 101 224
163 101 770
164 100 824
165 100 104
166 100 21
167 100 741
168 100 158
169 100 431
170 100 732
171 100 887
172 99 346
173 99 268
174 99 558
175 99 829
176 99 251
177 99 410
178 99 955
179 99 995
180 99 784
181 99 778
182 99 653
183 99 135
184 98 651
185 98 206
186 98 34
187 98 74
188 97 785
189 97 738
190 97 269
191 97 478
192 97 324
193 97 162
194 97 971
195 97 916
196 96 453
197 96 203
198 96 549
199 96 286
200 96 992
201 96 211
202 96 406
203 96 658
204 96 724
205 96 922
206 95 164
207 95 17
208 95 521
209 95 517
210 95 376
211 95 853
212 95 339
213 94 246
214 94 129
215 94 299
216 94 22
217 94 36
218 94 242
219 94 973
220 94 884
221 94 374
222 94 982
223 94 462
224 94 953
225 94 987
226 93 832
227 93 568
228 93 75
229 93 168
230 93 634
231 93 919
232 93 78
233 93 817
234 92 278
235 92 326
236 92 276
237 92 51
238 92 638
239 92 475
240 92 183
241 92 863
242 91 403
243 91 900
244 91 337
245 91 966
246 91 825
247 91 513
248 91 997
249 90 807
250 90 917
251 90 760
252 90 279
253 90 426
254 90 485
255 89 549
256 89 891
257 89 890
258 89 548
259 89 916
260 89 75
261 89 905
262 88 131
263 88 19
264 88 634
265 88 721
266 88 251
267 88 103
268 87 630
269 87 843
270 87 759
271 87 731
272 87 181
273 87 483
274 86 635
275 86 975
276 86 830
277 86 385
278 86 393
279 86 790
280 86 228
281 86 735
282 86 41
283 86 60
284 86 71
285 85 621
286 85 944
287 85 879
288 85 491
289 85 836
290 85 554
291 85 456
292 85 309
293 85 286
294 84 687
295 84 218
296 84 630
297 84 272
298 84 123
299 84 607
300 84 13
301 84 922
302 84 754
303 83 944
304 83 963
305 83 551
306 83 960
307 83 953
308 83 416
309 83 149
310 83 177
311 83 447
312 83 727
313 83 636
314 83 907
315 82 597
316 82 740
317 82 389
318 82 660
319 82 830
320 82 848
321 82 40
322 82 823
323 81 537
324 81 761
325 81 851
326 81 910
327 81 386
328 81 375
329 81 745
330 81 908
331 81 336
332 80 38
333 80 674
334 80 968
335 80 55
336 80 655
337 80 465
338 79 874
339 79 465
340 79 534
341 79 464
342 79 173
343 78 621
344 78 746
345 78 28
346 78 158
347 78 203
348 77 552
349 77 212
350 77 276
351 77 502
352 77 588
353 77 788
354 77 23
355 77 985
356 77 394
357 77 557
358 77 14
359 77 873
360 77 750
361 76 30
362 76 972
363 76 321
364 76 967
365 76 945
366 76 987
367 76 811
368 76 127
369 75 142
370 75 802
371 75 975
372 75 12
373 75 690
374 75 214
375 75 18
376 74 581
377 74 666
378 74 835
379 74 20
380 74 802
381 74 955
382 74 321
383 74 379
384 73 807
385 73 723
386 73 920
387 73 704
388 73 993
389 73 881
390 73 227
391 73 75
392 73 794
393 72 890
394 72 937
395 72 919
396 72 893
397 72 428
398 71 553
399 71 647
400 71 286
401 71 603
402 71 298
403 71 517
404 70 313
405 70 301
406 70 393
407 69 588
408 69 204
409 69 84
410 69 129
411 69 599
412 69 821
413 69 960
414 69 396
415 69 337
416 68 646
417 68 142
418 68 737
419 68 618
420 68 497
421 68 168
422 68 193
423 68 666
424 68 197
425 68 477
426 67 403
427 67 439
428 67 756
429 67 183
430 67 963
431 67 310
432 66 218
433 66 415
434 66 966
435 66 375
436 66 487
437 66 780
438 66 634
439 66 138
440 66 833
441 66 243
442 66 138
443 66 338
444 66 281
445 65 135
446 65 553
447 65 211
448 65 710
449 65 584
450 64 127
451 64 291
452 64 222
453 64 972
454 64 71
455 64 313
456 64 110
457 64 903
458 64 899
459 64 855
460 63 310
461 63 818
462 63 726
463 63 618
464 63 216
465 63 678
466 62 353
467 62 754
468 62 559
469 62 235
470 62 932
471 62 694
472 62 199
473 62 206
474 62 172
475 62 713
476 61 903
477 61 958
478 61 840
479 61 840
480 61 387
481 61 747
482 60 456
483 60 951
484 60 958
485 60 5
486 60 217
487 60 887
488 60 687
489 60 122
490 59 242
491 59 580
492 59 90
493 59 224
494 59 817
495 59 941
496 59 274
497 59 240
498 59 123
499 58 868
500 58 392
501 58 693
502 57 364
503 57 269
504 57 570
505 57 183
506 57 651
507 57 60
508 57 453
509 57 376
510 57 78
511 57 717
512 57 484
513 56 645
514 56 385
515 56 346
516 56 588
517 56 536
518 56 915
519 56 373
520 56 674
521 56 285
522 56 279
523 55 10
524 55 714
525 55 72
526 55 542
527 55 327
528 55 188
529 55 37
530 55 172
531 55 683
532 55 280
533 54 201
534 54 289
535 54 175
536 54 657
537 54 629
538 54 905
539 54 660
540 54 687
541 54 611
542 53 422
543 53 146
544 53 804
545 53 597
546 53 27
547 53 866
548 53 597
549 53 494
550 53 731
551 53 725
552 53 247
553 53 748
554 52 94
555 52 905
556 52 568
557 52 141
558 52 35
559 52 717
560 52 6
561 52 0
562 51 757
563 51 670
564 51 284
565 51 489
566 51 408
567 51 398
568 51 279
569 51 96
570 51 467
571 50 912
572 50 167
573 50 489
574 50 712
575 50 27
576 50 815
577 50 288
578 50 531
579 49 686
580 49 449
581 49 256
582 49 776
583 49 543
584 48 851
585 48 595
586 48 545
587 48 258
588 48 81
589 48 806
590 48 12
591 48 499
592 48 54
593 48 132
594 47 991
595 47 667
596 47 816
597 47 820
598 47 835
599 47 552
600 47 465
601 47 297
602 46 488
603 46 411
604 46 10
605 46 868
606 46 764
607 46 996
608 46 627
609 46 810
610 46 610
611 46 86
612 45 504
613 45 141
614 45 647
615 45 153
616 45 982
617 45 59
618 45 462
619 45 434
620 45 567
621 45 761
622 45 348
623 44 586
624 44 117
625 44 595
626 44 972
627 44 763
628 44 585
629 43 561
630 43 691
631 43 31
632 43 137
633 42 987
634 42 343
635 42 983
636 42 549
637 42 92
638 42 561
639 42 177
640 42 410
641 42 781
642 42 372
643 41 25
644 41 713
645 41 803
646 41 307
647 41 761
648 41 549
649 41 308
650 41 952
651 40 506
652 40 928
653 40 811
654 40 708
655 40 681
656 40 874
657 39 580
658 39 654
659 39 163
660 39 266
661 39 728
662 39 318
663 39 786
664 39 604
665 38 154
666 38 225
667 38 828
668 38 813
669 38 271
670 38 921
671 38 646
672 37 425
673 37 65
674 37 155
675 37 11
676 37 886
677 37 325
678 37 301
679 37 276
680 37 652
681 37 532
682 36 971
683 36 496
684 36 669
685 36 10
686 36 446
687 35 872
688 35 553
689 35 283
690 35 330
691 35 476
692 35 105
693 35 63
694 35 538
695 34 817
696 34 314
697 34 982
698 34 398
699 34 696
700 34 882
701 33 840
702 33 166
703 33 260
704 33 681
705 33 658
706 33 420
707 33 560
708 33 839
709 33 951
710 33 301
711 33 61
712 33 749
713 33 614
714 33 563
715 33 624
716 32 609
717 32 189
718 32 930
719 32 365
720 32 989
721 32 115
722 32 348
723 32 205
724 32 600
725 32 130
726 32 563
727 32 526
728 32 437
729 32 430
730 32 747
731 32 975
732 31 318
733 31 995
734 31 183
735 31 18
736 31 837
737 31 602
738 31 78
739 30 33
740 30 894
741 30 906
742 30 772
743 30 1
744 30 140
745 30 758
746 30 266
747 30 457
748 30 715
749 30 212
750 30 895
